(set-info :smt-lib-version 2.6)
(set-logic QF_BV)
(set-info :source |
 Patrice Godefroid, SAGE (systematic dynamic test generation)
 For more information: http://research.microsoft.com/en-us/um/people/pg/public_psfiles/ndss2008.pdf
|)
(set-info :category "industrial")
(set-info :status sat)
(declare-fun T4_10653 () (_ BitVec 32))
(declare-fun T4_2856 () (_ BitVec 32))
(declare-fun T1_10653 () (_ BitVec 8))
(declare-fun T1_10654 () (_ BitVec 8))
(declare-fun T1_10655 () (_ BitVec 8))
(declare-fun T1_10656 () (_ BitVec 8))
(declare-fun T1_2856 () (_ BitVec 8))
(declare-fun T1_2857 () (_ BitVec 8))
(declare-fun T1_2858 () (_ BitVec 8))
(declare-fun T1_2859 () (_ BitVec 8))
(assert (and true (= T4_2856 (bvor (bvshl (bvor (bvshl (bvor (bvshl ((_ zero_extend 24) T1_2859) (_ bv8 32)) ((_ zero_extend 24) T1_2858)) (_ bv8 32)) ((_ zero_extend 24) T1_2857)) (_ bv8 32)) ((_ zero_extend 24) T1_2856))) (= T4_10653 (bvor (bvshl (bvor (bvshl (bvor (bvshl ((_ zero_extend 24) T1_10656) (_ bv8 32)) ((_ zero_extend 24) T1_10655)) (_ bv8 32)) ((_ zero_extend 24) T1_10654)) (_ bv8 32)) ((_ zero_extend 24) T1_10653))) (not (= (_ bv3803035030 32) T4_10653)) (= T4_2856 T4_10653)))
(check-sat)
(exit)
